<<<<<<< HEAD
J = 5; % 5 Regionów 
K = 3; % 3 Lokalizacje/Datacenter 
=======
J = 5; % 5 Regionów (Europa Zachodnia, Ameryka Północna, Azja Wschodnia, Ameryka Południowa, Europa Centralna)
K = 3; % 3 Lokalizacje/Datacenter (Frankfurt/DE, Ashburn/US, Singapur/SG)
>>>>>>> c75d71a47200d85911ac315b8cf2c0dc8530179b
R = 3; % 3 Zasoby (1: CPU, 2: RAM, 3: SSD)

% Wymagania zasobowe na 1 instancję SMF (CPU (Rdzenie), RAM (GB), SSD (GB))
smf_req = [2.0, 4.0, 10.0]; 

% --- ZASOBY W LOKALIZACJACH (LOC_RESOURCES) ---
<<<<<<< HEAD
% Zróżnicowane Datacentra:  (Małe/Droższe),  (Duże/Standard),  (Średnie/Nowe)
loc_resources = array2d(1..K, 1..R, [ 
    30.0,  96.0,  300.0,  % Lokalizacja 1 (małe/umiarkowane zasoby)
    120.0, 384.0, 1500.0, % Lokalizacja 2 (duże zasoby)
    60.0,  192.0, 600.0   % Lokalizacja 3 (średnie zasoby)
=======
% Zróżnicowane Datacentra: Frankfurt (Małe/Droższe), Ashburn (Duże/Standard), Singapur (Średnie/Nowe)
loc_resources = array2d(1..K, 1..R, [ 
    30.0,  96.0,  300.0,  % Lokalizacja 1 (Frankfurt - małe/umiarkowane zasoby)
    120.0, 384.0, 1500.0, % Lokalizacja 2 (Ashburn - duże zasoby)
    60.0,  192.0, 600.0   % Lokalizacja 3 (Singapur - średnie zasoby)
>>>>>>> c75d71a47200d85911ac315b8cf2c0dc8530179b
]);

% --- POŁĄCZENIA (CONNECTIVITY) ---
% Nie każdy region ma dostęp do każdej lokalizacji (np. z powodu regulacji, kontraktów)
connected = array2d(1..J, 1..K, [
<<<<<<< HEAD
    true,  false, true,  % Region 1 
    false, true,  true,  % Region 2 
    true,  true,  true,  % Region 3 
    true,  true,  false, % Region 4 
    true,  true,  true   % Region 5 
=======
    true,  false, true,  % Region 1 (Europa Zach.) - brak dostępu do Ashburn (regulacje EU)
    false, true,  true,  % Region 2 (Ameryka Płn.) - brak dostępu do Frankfurtu (regulacje US)
    true,  true,  true,  % Region 3 (Azja Wschodnia) - ma dostęp do wszystkich
    true,  true,  false, % Region 4 (Ameryka Połud.) - brak dostępu do Singapuru
    true,  true,  true   % Region 5 (Europa Cent.) - ma dostęp do wszystkich
>>>>>>> c75d71a47200d85911ac315b8cf2c0dc8530179b
]);

% --- POPULACJA I SESJE (WYMAGANIA) ---
pop = [80000, 120000, 50000, 30000, 100000]; % Różna wielkość populacji regionów
req_per_person = [0.002, 0.003, 0.0015, 0.0025, 0.001]; % Różna aktywność użytkowników
tau = 600.0; % Czas trwania sesji (nie zmieniam)

% --- OPÓŹNIENIA (LATENCY) [Lokalizacja, Region] ---
<<<<<<< HEAD
% L1 daleko od L2/3
% L2 daleko od L1/3
% L3 daleko od L1/2
latency_kj = array2d(1..K, 1..J, [ 
     10.0,  80.0, 180.0, 150.0, 20.0,  % Lok 1 
     70.0,  20.0, 150.0,  90.0, 80.0,  % Lok 2 
    180.0, 150.0,  30.0, 220.0, 170.0  % Lok 3 
=======
% L1 (Frankfurt): blisko Europy, daleko od Azji/Ameryk
% L2 (Ashburn): blisko Ameryki Płn., daleko od Azji
% L3 (Singapur): blisko Azji, daleko od Europy/Ameryki
latency_kj = array2d(1..K, 1..J, [ 
     10.0,  80.0, 180.0, 150.0, 20.0,  % Lok 1 (Frankfurt)
     70.0,  20.0, 150.0,  90.0, 80.0,  % Lok 2 (Ashburn)
    180.0, 150.0,  30.0, 220.0, 170.0  % Lok 3 (Singapur)
>>>>>>> c75d71a47200d85911ac315b8cf2c0dc8530179b
]);

Lmax = 100.0; % Ograniczenie opóźnienia jest zaostrzone
C = 50000;    % Pojemność jednej instancji (sesje)
Nmin = 1;     % Wymóg minimum 1 instancji dla redundancji w każdej używanej lokalizacji
cost_per_instance = 1.0; % Koszt bazowy instancji (można rozszerzyć o koszt zależny od lokalizacji)

% --- KONFIGURACJA WAG FUNKCJI CELU ---
weight_cost = 10.0;     % Koszt infrastruktury (instancji) - ważny
weight_latency = 50.0;  % Opóźnienia są KRYTYCZNIE ważne (ze względu na obostrzenie Lmax)
<<<<<<< HEAD
weight_balance = 0.0; % Waga balansu serwera - wysoka wymusi optymalne rozłożenie ruchu, ale 0 daje lepsze zużycie zasobów
=======
weight_balance = 0.0; % Waga balansu serwera - wysoka wymusi optymalne rozłożenie ruchu
>>>>>>> c75d71a47200d85911ac315b8cf2c0dc8530179b
